MARKOV
14
3 3 3 9 2 2 3 9 3 18 2 9 6 3 
25
1 0 
1 1 
1 2 
1 3 
1 4 
1 5 
1 6 
1 7 
1 8 
1 9 
1 10 
1 11 
1 12 
1 13 
2 0 9 
2 0 12 
2 3 5 
2 3 6 
2 4 5 
2 6 9 
2 7 8 
2 9 12 
2 9 13 
2 11 12 
2 12 13 

3 1.203760e-03 5.344223e-03 1.000000e+00 
3 1.181304e-01 1.644398e-08 5.369786e-02 
3 1.000000e+00 1.424774e-05 4.087699e-02 
9 6.491824e-32 4.271784e-41 0.000000e+00 4.346437e-01 8.642772e-04 3.818117e-06 2.442693e-07 1.000000e+00 3.041537e-08 
2 7.086294e-04 1.000000e+00 
2 5.536032e-02 1.000000e+00 
3 1.991269e-23 1.080116e-06 1.000000e+00 
9 3.688581e-12 1.747996e-27 3.738626e-48 2.771609e-01 9.700408e-05 4.958968e-07 4.610273e-05 1.000000e+00 3.022427e-09 
3 1.000000e+00 3.593302e-07 2.578984e-02 
18 2.076837e-19 5.799678e-14 8.778199e-11 9.262683e-12 6.531751e-18 1.190636e-13 5.330721e-15 5.293314e-12 3.557101e-11 1.572892e-13 1.401041e-12 2.256562e-15 1.960533e-07 1.000000e+00 3.986013e-02 1.665864e-06 4.720980e-02 2.478816e-05 
2 5.034455e-02 3.044758e-01 
9 3.233778e-07 2.377421e-04 3.629470e-04 2.279455e-03 2.170073e-05 1.725805e-06 1.012442e-04 1.000000e+00 7.358211e-02 
6 4.561856e-77 3.797410e-82 1.000000e+00 3.250275e-05 1.632965e-02 1.392248e-03 
3 4.838652e-04 2.897189e-04 1.000000e+00 
54 1.000000e+00 1.000000e+00 1.000000e+00 1.000000e+00 1.000000e+00 1.000000e+00 1.000000e+00 1.000000e+00 1.000000e+00 1.000000e+00 1.000000e+00 1.000000e+00 1.000000e+00 1.000000e+00 1.000000e+00 1.000000e+00 1.000000e+00 1.000000e+00 1.778530e-09 1.894854e-11 2.447790e-09 2.061154e-09 4.564180e-09 7.630006e-09 1.000000e+00 1.000000e+00 1.000000e+00 1.000000e+00 1.000000e+00 1.000000e+00 1.000000e+00 1.000000e+00 1.000000e+00 1.000000e+00 1.000000e+00 1.000000e+00 1.000000e+00 1.000000e+00 1.000000e+00 1.000000e+00 1.000000e+00 1.000000e+00 1.000000e+00 1.000000e+00 1.000000e+00 1.000000e+00 1.000000e+00 1.000000e+00 1.000000e+00 1.000000e+00 1.000000e+00 1.000000e+00 1.000000e+00 1.000000e+00 
18 4.382366e-02 1.000000e+00 8.152633e-01 1.000000e+00 1.000000e+00 1.000000e+00 7.784230e-12 1.784578e-11 1.000000e+00 1.000000e+00 1.000000e+00 1.000000e+00 1.000000e+00 1.000000e+00 1.000000e+00 1.000000e+00 1.000000e+00 1.000000e+00 
18 1.000000e+00 1.000000e+00 1.000000e+00 1.000000e+00 1.000000e+00 1.000000e+00 1.000000e+00 1.000000e+00 2.061154e-09 3.880196e-04 2.061154e-09 9.870583e-05 1.000000e+00 1.000000e+00 1.000000e+00 1.000000e+00 1.000000e+00 1.000000e+00 
27 9.357623e-14 1.000000e+00 2.415985e-11 9.357623e-14 1.000000e+00 3.146094e-08 9.357623e-14 1.000000e+00 3.516598e-05 1.000000e+00 1.000000e+00 1.510558e-01 1.000000e+00 1.000000e+00 1.000000e+00 1.000000e+00 1.000000e+00 1.000000e+00 1.000000e+00 1.000000e+00 1.000000e+00 1.000000e+00 1.000000e+00 1.000000e+00 1.000000e+00 1.000000e+00 1.000000e+00 
4 3.476165e-03 1.314445e-03 1.000000e+00 1.000000e+00 
54 1.000000e+00 1.000000e+00 1.000000e+00 1.000000e+00 1.000000e+00 1.000000e+00 1.000000e+00 1.000000e+00 1.000000e+00 1.000000e+00 1.000000e+00 1.000000e+00 1.000000e+00 1.000000e+00 1.000000e+00 1.000000e+00 1.000000e+00 1.000000e+00 1.100626e-03 1.000000e+00 1.000000e+00 1.188775e-03 1.000000e+00 1.000000e+00 1.000000e+00 1.000000e+00 1.000000e+00 1.000000e+00 1.000000e+00 1.000000e+00 1.000000e+00 1.000000e+00 1.000000e+00 1.000000e+00 1.000000e+00 1.000000e+00 1.000000e+00 1.000000e+00 1.000000e+00 1.000000e+00 1.000000e+00 1.000000e+00 1.000000e+00 1.000000e+00 1.000000e+00 1.000000e+00 1.000000e+00 1.000000e+00 1.000000e+00 1.000000e+00 1.000000e+00 1.000000e+00 1.000000e+00 1.000000e+00 
27 1.000000e+00 1.000000e+00 1.252276e-02 1.000000e+00 1.000000e+00 1.000000e+00 1.000000e+00 1.000000e+00 4.539993e-05 1.000000e+00 1.000000e+00 1.000000e+00 1.000000e+00 1.000000e+00 1.000000e+00 1.000000e+00 1.000000e+00 1.000000e+00 1.000000e+00 1.000000e+00 1.000000e+00 1.000000e+00 1.000000e+00 1.000000e+00 1.000000e+00 1.000000e+00 1.000000e+00 
108 1.948748e-54 1.452899e-56 1.000000e+00 1.000000e+00 1.000000e+00 1.000000e+00 5.715505e-69 2.732511e-70 1.000000e+00 1.000000e+00 1.000000e+00 1.000000e+00 5.999606e-63 9.960677e-62 1.000000e+00 1.000000e+00 1.000000e+00 1.000000e+00 1.031529e-61 1.388326e-61 1.000000e+00 1.000000e+00 1.000000e+00 1.000000e+00 1.539255e-73 1.261925e-72 1.000000e+00 1.000000e+00 1.000000e+00 1.000000e+00 7.231368e-68 4.198321e-66 1.000000e+00 1.000000e+00 1.000000e+00 1.000000e+00 4.607794e-54 2.023282e-51 2.061154e-09 4.373001e-10 2.751136e-21 2.299793e-24 1.365445e-36 9.770213e-40 2.404633e-04 3.561992e-05 6.171906e-20 8.260686e-25 9.448354e-38 1.191568e-43 1.000000e+00 2.863250e-05 2.014845e-16 2.456973e-21 2.842253e-48 2.814865e-44 8.409663e-09 1.436757e-08 7.434127e-19 5.468044e-22 1.047766e-52 4.948458e-50 2.061154e-09 6.407477e-10 7.714275e-21 3.914039e-24 2.631738e-34 1.213425e-37 1.259610e-02 2.384950e-02 1.718710e-18 2.654383e-23 4.703922e-05 1.187360e-11 1.000000e+00 1.000000e+00 1.000000e+00 9.982144e-01 3.304498e-04 4.569802e-08 1.000000e+00 1.000000e+00 1.000000e+00 1.000000e+00 1.848566e-04 4.274233e-11 1.000000e+00 1.000000e+00 1.000000e+00 1.000000e+00 3.338463e-05 5.785002e-14 1.000000e+00 1.000000e+00 1.000000e+00 1.000000e+00 3.380674e-04 1.887909e-07 1.000000e+00 1.000000e+00 1.000000e+00 1.000000e+00 2.919822e-04 5.191459e-10 1.000000e+00 1.000000e+00 1.000000e+00 1.000000e+00 
54 1.000000e+00 1.000000e+00 4.539993e-05 1.000000e+00 1.000000e+00 1.168462e-03 1.000000e+00 1.000000e+00 1.000000e+00 1.000000e+00 1.000000e+00 4.539993e-05 1.000000e+00 1.000000e+00 4.539993e-05 1.000000e+00 1.000000e+00 7.167848e-01 1.000000e+00 1.000000e+00 1.000000e+00 1.000000e+00 1.000000e+00 1.000000e+00 1.000000e+00 1.000000e+00 1.000000e+00 1.000000e+00 1.000000e+00 1.000000e+00 1.000000e+00 1.000000e+00 1.000000e+00 1.000000e+00 1.000000e+00 1.000000e+00 1.000000e+00 1.000000e+00 1.000000e+00 1.000000e+00 1.000000e+00 1.000000e+00 1.000000e+00 1.000000e+00 1.000000e+00 1.000000e+00 1.000000e+00 1.000000e+00 1.000000e+00 1.000000e+00 1.000000e+00 1.000000e+00 1.000000e+00 1.000000e+00 
54 1.000000e+00 1.000000e+00 1.000000e+00 1.000000e+00 1.000000e+00 6.749153e-05 1.000000e+00 1.000000e+00 1.000000e+00 1.000000e+00 1.000000e+00 1.000000e+00 1.000000e+00 1.000000e+00 1.000000e+00 1.000000e+00 1.000000e+00 1.000000e+00 1.000000e+00 1.000000e+00 1.000000e+00 1.000000e+00 1.000000e+00 1.000000e+00 1.000000e+00 1.000000e+00 1.000000e+00 1.000000e+00 1.000000e+00 1.000000e+00 1.000000e+00 1.000000e+00 1.000000e+00 1.000000e+00 1.000000e+00 1.000000e+00 1.000000e+00 1.000000e+00 1.000000e+00 1.000000e+00 1.000000e+00 1.000000e+00 1.000000e+00 1.000000e+00 1.000000e+00 1.000000e+00 1.000000e+00 1.000000e+00 1.000000e+00 1.000000e+00 1.000000e+00 1.000000e+00 1.000000e+00 1.000000e+00 
18 1.000000e+00 1.000000e+00 5.436558e-14 5.962142e-03 1.000000e+00 3.360665e-12 1.000000e+00 1.000000e+00 1.000000e+00 1.000000e+00 1.000000e+00 1.000000e+00 1.000000e+00 1.000000e+00 1.000000e+00 1.000000e+00 1.000000e+00 1.000000e+00 

